p wcnf 2000 200 1
1 1 0
1 2 0
1 3 0
1 4 0
1 5 0
1 6 0
1 7 0
1 8 0
1 9 0
1 10 0
1 11 0
1 12 0
1 1 1 1 1 1 1 1 1 1 1 1 0
1 1 2 2 2 2 2 2 2 2 2 2 0
1 2 2 2 2 2 2 2 2 2 2 2 0
1 3 3 3 3 3 3 3 3 3 3 3 0
1 3 3 3 3 3 3 4 4 4 4 4 0
1 4 4 4 4 4 4 4 4 4 4 4 0
1 4 4 4 4 4 4 4 4 4 4 4 0
1 5 5 5 5 5 5 5 5 5 5 5 0
1 5 5 5 5 5 5 5 5 5 5 5 0
1 5 5 5 5 6 6 6 6 6 6 6 0
1 6 6 6 6 7 7 7 7 7 7 7 0
1 7 7 7 7 7 7 7 7 7 7 7 0
1 7 7 7 8 8 8 8 8 8 8 8 0
1 8 8 8 8 8 8 8 8 8 8 8 0
1 8 8 9 9 9 9 9 9 9 9 9 0
1 9 9 9 9 9 9 9 9 9 9 9 0
1 10 10 10 10 10 10 10 10 10 10 10 0
1 10 10 10 10 10 10 10 10 10 10 10 0
1 10 10 10 10 10 11 11 11 11 11 11 0
1 11 11 11 11 11 11 11 11 11 11 11 0
1 11 11 11 11 11 11 11 11 11 11 11 0
1 12 12 12 12 12 12 12 12 12 12 12 0
1 12 12 12 12 12 12 12 12 12 12 12 0
1 13 13 13 13 13 13 13 13 13 13 13 0
1 13 13 13 13 13 14 14 14 14 14 14 0
1 14 14 14 14 14 14 14 14 15 15 15 0
1 15 15 15 15 15 15 15 15 15 15 15 0
1 15 15 15 15 16 16 16 16 16 16 16 0
1 16 16 16 16 17 17 17 17 17 17 17 0
1 17 17 17 17 17 17 17 17 17 18 18 0
1 18 18 18 18 18 18 18 18 18 18 18 0
1 18 18 18 18 19 19 19 19 19 19 19 0
1 19 19 19 19 19 19 19 19 19 19 19 0
1 19 19 19 19 20 20 20 20 20 20 20 0
1 20 20 20 20 20 20 20 20 20 20 20 0
1 20 20 21 21 21 21 21 21 21 21 21 0
1 21 21 21 21 21 21 21 22 22 22 22 0
1 22 22 22 22 22 22 22 22 22 22 22 0
1 22 22 23 23 23 23 23 23 23 23 23 0
1 23 23 23 23 23 24 24 24 24 24 24 0
1 24 24 24 24 24 24 24 24 24 24 24 0
1 24 24 24 24 25 25 25 25 25 25 25 0
1 25 25 25 25 25 25 25 25 25 25 25 0
1 25 25 25 25 26 26 26 26 26 26 26 0
1 26 26 26 26 26 26 27 27 27 27 27 0
1 27 27 27 27 27 27 27 27 27 27 27 0
1 27 28 28 28 28 28 28 28 28 28 28 0
1 28 28 28 28 28 28 28 28 28 28 28 0
1 28 28 28 29 29 29 29 29 29 29 29 0
1 29 29 29 29 29 29 29 29 29 29 30 0
1 30 30 30 30 30 30 30 30 30 30 30 0
1 30 30 30 31 31 31 31 31 31 31 31 0
1 31 31 31 31 31 31 31 31 31 31 31 0
1 32 32 32 32 32 32 32 32 32 32 32 0
1 32 32 32 32 32 32 32 32 32 32 32 0
1 32 32 32 33 33 33 33 33 33 33 33 0
1 33 33 33 33 33 33 33 33 33 33 33 0
1 33 33 33 33 33 33 34 34 34 34 34 0
1 34 34 34 34 34 34 34 34 35 35 35 0
1 35 35 35 35 35 35 35 35 35 35 35 0
1 35 35 36 36 36 36 36 36 36 36 36 0
1 36 36 36 36 36 36 36 36 36 36 36 0
1 37 37 37 37 37 37 37 37 37 37 37 0
1 37 37 37 37 37 37 37 37 37 37 38 0
1 38 38 38 38 38 38 38 38 38 38 38 0
1 38 38 38 38 38 38 39 39 39 39 39 0
1 39 39 39 39 39 39 39 39 39 39 39 0
1 40 40 40 40 40 40 40 40 40 40 40 0
1 40 40 40 40 40 40 40 40 40 40 40 0
1 40 41 41 41 41 41 41 41 41 41 41 0
1 41 41 41 41 41 41 42 42 42 42 42 0
1 42 42 42 42 42 42 42 42 42 42 42 0
1 42 42 42 42 42 43 43 43 43 43 43 0
1 43 43 43 43 43 43 43 43 43 43 43 0
1 44 44 44 44 44 44 44 44 44 44 44 0
1 44 44 44 44 44 44 44 44 44 45 45 0
1 45 45 45 45 45 45 45 45 45 45 46 0
1 46 46 46 46 46 46 46 46 46 47 47 0
1 47 47 47 47 47 47 47 47 47 47 47 0
1 47 47 47 47 47 47 48 48 48 48 48 0
1 48 48 48 48 48 48 48 48 48 48 48 0
1 48 48 48 48 48 48 48 48 49 49 49 0
1 49 49 49 49 49 49 49 49 49 49 49 0
1 49 49 49 49 49 49 49 49 49 49 50 0
1 50 50 50 50 50 50 50 50 50 50 50 0
1 50 50 50 50 50 50 50 50 51 51 51 0
1 51 51 51 51 51 51 51 51 51 51 51 0
1 51 51 51 51 52 52 52 52 52 52 52 0
1 52 52 52 52 52 52 52 52 52 52 52 0
1 52 52 52 53 53 53 53 53 53 53 53 0
1 53 53 53 53 54 54 54 54 54 54 54 0
1 54 54 54 54 54 54 54 54 54 54 55 0
1 55 55 55 55 55 55 55 55 55 55 55 0
1 56 56 56 56 56 56 56 56 56 56 56 0
1 56 56 57 57 57 57 57 57 57 57 57 0
1 57 57 57 57 57 57 57 57 57 58 58 0
1 58 58 58 58 58 58 58 58 58 58 59 0
1 59 59 59 59 59 59 59 59 59 59 59 0
1 59 59 59 59 60 60 60 60 60 60 60 0
1 60 60 60 60 60 60 60 60 60 60 60 0
1 61 61 61 61 61 61 61 61 61 61 61 0
1 61 61 62 62 62 62 62 62 62 62 62 0
1 62 62 62 62 62 62 62 62 62 62 62 0
1 62 63 63 63 63 63 63 63 63 63 63 0
1 63 63 63 63 63 63 63 63 63 63 64 0
1 64 64 64 64 64 64 64 64 64 64 64 0
1 64 65 65 65 65 65 65 65 65 65 65 0
1 65 65 65 65 65 65 66 66 66 66 66 0
1 66 66 66 66 66 66 66 66 66 66 66 0
1 66 66 66 66 66 67 67 67 67 67 67 0
1 67 67 67 67 67 67 67 67 67 67 67 0
1 68 68 68 68 68 68 68 68 68 68 68 0
1 68 68 68 68 69 69 69 69 69 69 69 0
1 69 69 69 69 69 69 69 69 69 69 69 0
1 69 69 69 69 69 69 70 70 70 70 70 0
1 70 70 70 70 70 70 70 70 70 70 70 0
1 70 70 70 70 71 71 71 71 71 71 71 0
1 71 71 71 71 71 71 71 71 71 71 71 0
1 72 72 72 72 72 72 72 72 72 72 72 0
1 72 72 72 72 72 72 72 72 72 72 73 0
1 73 73 73 73 73 73 73 73 73 74 74 0
1 74 74 74 74 74 74 74 74 74 74 74 0
1 74 75 75 75 75 75 75 75 75 75 75 0
1 75 75 75 75 75 75 75 75 75 76 76 0
1 76 76 76 76 76 76 76 76 76 76 76 0
1 76 76 76 76 76 77 77 77 77 77 77 0
1 77 77 77 77 77 77 77 77 77 77 78 0
1 78 78 78 78 78 78 78 78 78 78 78 0
1 78 78 78 78 78 78 78 78 78 78 79 0
1 79 79 79 79 79 79 79 79 79 79 79 0
1 79 79 79 79 79 79 79 79 79 79 79 0
1 79 80 80 80 80 80 80 80 80 80 80 0
1 80 80 80 80 80 80 80 80 80 80 80 0
1 81 81 81 81 81 81 81 81 81 81 81 0
1 81 81 81 81 81 82 82 82 82 82 82 0
1 82 82 82 82 82 82 82 82 82 82 82 0
1 83 83 83 83 83 83 83 83 83 83 83 0
1 83 83 83 83 83 83 83 83 83 83 83 0
1 83 83 83 83 84 84 84 84 84 84 84 0
1 84 84 84 84 84 84 84 84 84 85 85 0
1 85 85 85 85 85 85 85 85 85 85 85 0
1 85 85 85 85 85 85 85 85 85 86 86 0
1 86 86 86 86 86 86 86 86 86 86 86 0
1 86 86 86 86 87 87 87 87 87 87 87 0
1 87 87 87 87 87 87 87 87 88 88 88 0
1 88 88 88 88 88 88 88 88 88 88 89 0
1 89 89 89 89 89 89 89 89 89 89 89 0
1 89 89 89 89 89 89 90 90 90 90 90 0
1 90 90 90 90 90 90 90 90 90 90 90 0
1 91 91 91 91 91 91 91 91 91 91 91 0
1 91 91 91 91 91 91 91 91 91 91 92 0
1 92 92 92 92 92 92 92 92 92 92 92 0
1 92 92 93 93 93 93 93 93 93 93 93 0
1 93 93 93 93 93 93 93 93 93 93 93 0
1 93 93 94 94 94 94 94 94 94 94 94 0
1 94 94 94 94 94 94 94 94 94 94 95 0
1 95 95 95 95 95 95 95 95 95 95 95 0
1 96 96 96 96 96 96 96 96 96 96 96 0
1 96 96 96 97 97 97 97 97 97 97 97 0
1 97 97 97 97 97 97 97 97 97 97 97 0
1 98 98 98 98 98 98 98 98 98 98 98 0
1 98 98 98 98 98 98 98 98 98 98 98 0
1 98 98 99 99 99 99 99 99 99 99 99 0
1 99 99 99 99 99 99 99 99 99 99 99 0
1 99 99 99 100 100 100 100 100 100 100 100 0
1 100 100 100 100 100 100 100 0
1  0
1 127 184 278 359 376 481 501 512 554 641 646 0
1 820 848 925 1049 1147 1194 1232 1305 1316 1340 1356 0
1 1400 1495 1549 1606 1676 1718 1734 1788 1802 1810 0
1  0
1 5 99 154 189 216 224 266 274 326 329 377 0
1 466 542 573 595 635 706 737 750 753 757 801 0
1 833 927 997 1006 1054 1077 1104 1176 1180 1194 1208 0
1 1396 1500 1506 1562 1565 1611 1655 1668 1693 1808 1826 0
1  0
1  0
1 138 186 188 223 409 412 473 554 691 718 758 0
1 767 787 788 867 892 895 959 1052 1058 1076 1261 0
1 1542 1562 1691 1735 1772 1785 1816 1828 1841 1901 1904 0
1  0
1  0
1 75 105 139 213 235 273 349 363 453 463 464 0
1 811 914 936 971 1020 1049 1114 1136 1144 1162 1181 0
1 1308 1335 1362 1386 1433 1457 1480 1496 1550 1587 1599 0
1 1716 1717 1784 1802 1824 1840 1884 1931 1939 1960 1971 0
1  0
1  0
1 97 162 218 240 248 294 365 393 503 539 613 0
1 740 780 798 828 849 886 896 908 1055 1164 1195 0
1 1231 1239 1286 1287 1292 1314 1325 1348 1454 1670 1718 0
1 1764 1772 1791 1794 1795 1818 1850 1876 1929 0
1  0
1 16 18 27 35 97 148 308 318 453 535 551 0
1 631 737 843 953 988 1087 1153 1165 1371 1379 1411 0
1 1432 1438 1460 1468 1518 1609 1617 1723 1750 1753 1848 0
1 1903 1928 1936 0
1  0
1 74 89 161 280 343 446 448 589 602 664 712 0
1 828 843 847 872 885 914 918 963 998 1042 1073 0
